15
0 174 244 270 897 393 644 200 94 21 511 358 35 230 292
174 0 40 16 27 197 364 2 27 16 449 740 85 87 208
244 40 0 75 256 5 333 21 118 69 64 167 396 192 242
270 16 75 0 656 909 414 256 207 262 74 171 277 106 12
897 27 256 656 0 165 434 575 113 14 490 133 424 131 77
393 197 5 909 165 0 27 95 146 425 314 749 183 308 353
644 364 333 414 434 27 0 234 367 340 38 506 139 526 392
200 2 21 256 575 95 234 0 73 120 672 359 251 10 59
94 27 118 207 113 146 367 73 0 83 456 480 200 180 387
21 16 69 262 14 425 340 120 83 0 249 111 189 19 101
511 449 64 74 490 314 38 672 456 249 0 3 602 30 41
358 740 167 171 133 749 506 359 480 111 3 0 14 69 123
35 85 396 277 424 183 139 251 200 189 602 14 0 12 64
230 87 192 106 131 308 526 10 180 19 30 69 12 0 91
292 208 242 12 77 353 392 59 387 101 41 123 64 91 0